p tw 496 1664
1 33
2 34
3 35
4 36
5 37
6 38
7 39
8 40
9 41
10 42
11 43
12 44
13 45
14 46
15 47
16 48
17 49
18 50
19 51
20 52
21 53
22 54
23 55
24 56
25 57
26 58
27 59
28 60
29 61
30 62
31 63
32 64
33 100
33 101
33 102
33 103
34 117
34 138
34 140
34 141
35 69
35 86
35 90
35 91
36 82
36 87
36 98
36 99
37 113
37 116
37 120
37 123
38 93
38 100
38 109
38 112
39 77
39 120
39 121
39 122
40 76
40 109
40 110
40 111
41 86
41 87
41 88
41 89
42 73
42 92
42 96
42 97
43 65
43 69
43 70
43 71
44 65
44 66
44 67
44 68
45 104
45 127
45 129
45 130
46 72
46 79
46 80
46 81
47 70
47 113
47 114
47 115
48 101
48 129
48 134
48 137
49 110
49 114
49 127
49 128
50 92
50 93
50 94
50 95
51 116
51 117
51 118
51 119
52 66
52 76
52 77
52 78
53 80
53 107
53 124
53 126
54 72
54 73
54 74
54 75
55 98
55 106
55 107
55 108
56 83
56 106
56 124
56 125
57 74
57 134
57 135
57 136
58 102
58 135
58 142
58 144
59 88
59 96
59 131
59 133
60 82
60 83
60 84
60 85
61 79
61 90
61 104
61 105
62 118
62 140
62 142
62 143
63 94
63 121
63 131
63 132
64 67
64 84
64 138
64 139
65 66
65 67
65 68
65 69
65 70
65 71
66 67
66 68
66 76
66 77
66 78
67 68
67 84
67 138
67 139
68 145
68 146
68 147
68 148
69 70
69 71
69 86
69 90
69 91
70 71
70 113
70 114
70 115
71 145
71 149
71 150
71 151
72 73
72 74
72 75
72 79
72 80
72 81
73 74
73 75
73 92
73 96
73 97
74 75
74 134
74 135
74 136
75 152
75 153
75 154
75 155
76 77
76 78
76 109
76 110
76 111
77 78
77 120
77 121
77 122
78 146
78 156
78 157
78 158
79 80
79 81
79 90
79 104
79 105
80 81
80 107
80 124
80 126
81 152
81 159
81 160
81 161
82 83
82 84
82 85
82 87
82 98
82 99
83 84
83 85
83 106
83 124
83 125
84 85
84 138
84 139
85 162
85 163
85 164
85 165
86 87
86 88
86 89
86 90
86 91
87 88
87 89
87 98
87 99
88 89
88 96
88 131
88 133
89 166
89 167
89 168
89 169
90 91
90 104
90 105
91 149
91 166
91 170
91 171
92 93
92 94
92 95
92 96
92 97
93 94
93 95
93 100
93 109
93 112
94 95
94 121
94 131
94 132
95 172
95 173
95 174
95 175
96 97
96 131
96 133
97 153
97 172
97 176
97 177
98 99
98 106
98 107
98 108
99 162
99 167
99 178
99 179
100 101
100 102
100 103
100 109
100 112
101 102
101 103
101 129
101 134
101 137
102 103
102 135
102 142
102 144
103 180
103 181
103 182
103 183
104 105
104 127
104 129
104 130
105 159
105 170
105 184
105 185
106 107
106 108
106 124
106 125
107 108
107 124
107 126
108 178
108 186
108 187
108 188
109 110
109 111
109 112
110 111
110 114
110 127
110 128
111 156
111 189
111 190
111 191
112 173
112 180
112 189
112 192
113 114
113 115
113 116
113 120
113 123
114 115
114 127
114 128
115 150
115 193
115 194
115 195
116 117
116 118
116 119
116 120
116 123
117 118
117 119
117 138
117 140
117 141
118 119
118 140
118 142
118 143
119 196
119 197
119 198
119 199
120 121
120 122
120 123
121 122
121 131
121 132
122 157
122 200
122 201
122 202
123 193
123 196
123 200
123 203
124 125
124 126
125 163
125 186
125 204
125 205
126 160
126 187
126 204
126 206
127 128
127 129
127 130
128 190
128 194
128 207
128 208
129 130
129 134
129 137
130 184
130 207
130 209
130 210
131 132
131 133
132 174
132 201
132 211
132 212
133 168
133 176
133 211
133 213
134 135
134 136
134 137
135 136
135 142
135 144
136 154
136 214
136 215
136 216
137 181
137 209
137 214
137 217
138 139
138 140
138 141
139 147
139 164
139 218
139 219
140 141
140 142
140 143
141 197
141 218
141 220
141 221
142 143
142 144
143 198
143 220
143 222
143 223
144 182
144 215
144 222
144 224
145 146
145 147
145 148
145 149
145 150
145 151
146 147
146 148
146 156
146 157
146 158
147 148
147 164
147 218
147 219
148 225
148 226
148 227
148 228
149 150
149 151
149 166
149 170
149 171
150 151
150 193
150 194
150 195
151 225
151 229
151 230
151 231
152 153
152 154
152 155
152 159
152 160
152 161
153 154
153 155
153 172
153 176
153 177
154 155
154 214
154 215
154 216
155 232
155 233
155 234
155 235
156 157
156 158
156 189
156 190
156 191
157 158
157 200
157 201
157 202
158 226
158 236
158 237
158 238
159 160
159 161
159 170
159 184
159 185
160 161
160 187
160 204
160 206
161 232
161 239
161 240
161 241
162 163
162 164
162 165
162 167
162 178
162 179
163 164
163 165
163 186
163 204
163 205
164 165
164 218
164 219
165 242
165 243
165 244
165 245
166 167
166 168
166 169
166 170
166 171
167 168
167 169
167 178
167 179
168 169
168 176
168 211
168 213
169 246
169 247
169 248
169 249
170 171
170 184
170 185
171 229
171 246
171 250
171 251
172 173
172 174
172 175
172 176
172 177
173 174
173 175
173 180
173 189
173 192
174 175
174 201
174 211
174 212
175 252
175 253
175 254
175 255
176 177
176 211
176 213
177 233
177 252
177 256
177 257
178 179
178 186
178 187
178 188
179 242
179 247
179 258
179 259
180 181
180 182
180 183
180 189
180 192
181 182
181 183
181 209
181 214
181 217
182 183
182 215
182 222
182 224
183 260
183 261
183 262
183 263
184 185
184 207
184 209
184 210
185 239
185 250
185 264
185 265
186 187
186 188
186 204
186 205
187 188
187 204
187 206
188 258
188 266
188 267
188 268
189 190
189 191
189 192
190 191
190 194
190 207
190 208
191 236
191 269
191 270
191 271
192 253
192 260
192 269
192 272
193 194
193 195
193 196
193 200
193 203
194 195
194 207
194 208
195 230
195 273
195 274
195 275
196 197
196 198
196 199
196 200
196 203
197 198
197 199
197 218
197 220
197 221
198 199
198 220
198 222
198 223
199 276
199 277
199 278
199 279
200 201
200 202
200 203
201 202
201 211
201 212
202 237
202 280
202 281
202 282
203 273
203 276
203 280
203 283
204 205
204 206
205 243
205 266
205 284
205 285
206 240
206 267
206 284
206 286
207 208
207 209
207 210
208 270
208 274
208 287
208 288
209 210
209 214
209 217
210 264
210 287
210 289
210 290
211 212
211 213
212 254
212 281
212 291
212 292
213 248
213 256
213 291
213 293
214 215
214 216
214 217
215 216
215 222
215 224
216 234
216 294
216 295
216 296
217 261
217 289
217 294
217 297
218 219
218 220
218 221
219 227
219 244
219 298
219 299
220 221
220 222
220 223
221 277
221 298
221 300
221 301
222 223
222 224
223 278
223 300
223 302
223 303
224 262
224 295
224 302
224 304
225 226
225 227
225 228
225 229
225 230
225 231
226 227
226 228
226 236
226 237
226 238
227 228
227 244
227 298
227 299
228 305
228 306
228 307
228 308
229 230
229 231
229 246
229 250
229 251
230 231
230 273
230 274
230 275
231 305
231 309
231 310
231 311
232 233
232 234
232 235
232 239
232 240
232 241
233 234
233 235
233 252
233 256
233 257
234 235
234 294
234 295
234 296
235 312
235 313
235 314
235 315
236 237
236 238
236 269
236 270
236 271
237 238
237 280
237 281
237 282
238 306
238 316
238 317
238 318
239 240
239 241
239 250
239 264
239 265
240 241
240 267
240 284
240 286
241 312
241 319
241 320
241 321
242 243
242 244
242 245
242 247
242 258
242 259
243 244
243 245
243 266
243 284
243 285
244 245
244 298
244 299
245 322
245 323
245 324
245 325
246 247
246 248
246 249
246 250
246 251
247 248
247 249
247 258
247 259
248 249
248 256
248 291
248 293
249 326
249 327
249 328
249 329
250 251
250 264
250 265
251 309
251 326
251 330
251 331
252 253
252 254
252 255
252 256
252 257
253 254
253 255
253 260
253 269
253 272
254 255
254 281
254 291
254 292
255 332
255 333
255 334
255 335
256 257
256 291
256 293
257 313
257 332
257 336
257 337
258 259
258 266
258 267
258 268
259 322
259 327
259 338
259 339
260 261
260 262
260 263
260 269
260 272
261 262
261 263
261 289
261 294
261 297
262 263
262 295
262 302
262 304
263 340
263 341
263 342
263 343
264 265
264 287
264 289
264 290
265 319
265 330
265 344
265 345
266 267
266 268
266 284
266 285
267 268
267 284
267 286
268 338
268 346
268 347
268 348
269 270
269 271
269 272
270 271
270 274
270 287
270 288
271 316
271 349
271 350
271 351
272 333
272 340
272 349
272 352
273 274
273 275
273 276
273 280
273 283
274 275
274 287
274 288
275 310
275 353
275 354
275 355
276 277
276 278
276 279
276 280
276 283
277 278
277 279
277 298
277 300
277 301
278 279
278 300
278 302
278 303
279 356
279 357
279 358
279 359
280 281
280 282
280 283
281 282
281 291
281 292
282 317
282 360
282 361
282 362
283 353
283 356
283 360
283 363
284 285
284 286
285 323
285 346
285 364
285 365
286 320
286 347
286 364
286 366
287 288
287 289
287 290
288 350
288 354
288 367
288 368
289 290
289 294
289 297
290 344
290 367
290 369
290 370
291 292
291 293
292 334
292 361
292 371
292 372
293 328
293 336
293 371
293 373
294 295
294 296
294 297
295 296
295 302
295 304
296 314
296 374
296 375
296 376
297 341
297 369
297 374
297 377
298 299
298 300
298 301
299 307
299 324
299 378
299 379
300 301
300 302
300 303
301 357
301 378
301 380
301 381
302 303
302 304
303 358
303 380
303 382
303 383
304 342
304 375
304 382
304 384
305 306
305 307
305 308
305 309
305 310
305 311
306 307
306 308
306 316
306 317
306 318
307 308
307 324
307 378
307 379
308 385
308 386
308 387
308 388
309 310
309 311
309 326
309 330
309 331
310 311
310 353
310 354
310 355
311 385
311 389
311 390
311 391
312 313
312 314
312 315
312 319
312 320
312 321
313 314
313 315
313 332
313 336
313 337
314 315
314 374
314 375
314 376
315 392
315 393
315 394
315 395
316 317
316 318
316 349
316 350
316 351
317 318
317 360
317 361
317 362
318 386
318 396
318 397
318 398
319 320
319 321
319 330
319 344
319 345
320 321
320 347
320 364
320 366
321 392
321 399
321 400
321 401
322 323
322 324
322 325
322 327
322 338
322 339
323 324
323 325
323 346
323 364
323 365
324 325
324 378
324 379
325 402
325 403
325 404
325 405
326 327
326 328
326 329
326 330
326 331
327 328
327 329
327 338
327 339
328 329
328 336
328 371
328 373
329 406
329 407
329 408
329 409
330 331
330 344
330 345
331 389
331 406
331 410
331 411
332 333
332 334
332 335
332 336
332 337
333 334
333 335
333 340
333 349
333 352
334 335
334 361
334 371
334 372
335 412
335 413
335 414
335 415
336 337
336 371
336 373
337 393
337 412
337 416
337 417
338 339
338 346
338 347
338 348
339 402
339 407
339 418
339 419
340 341
340 342
340 343
340 349
340 352
341 342
341 343
341 369
341 374
341 377
342 343
342 375
342 382
342 384
343 420
343 421
343 422
343 423
344 345
344 367
344 369
344 370
345 399
345 410
345 424
345 425
346 347
346 348
346 364
346 365
347 348
347 364
347 366
348 418
348 426
348 427
348 428
349 350
349 351
349 352
350 351
350 354
350 367
350 368
351 396
351 429
351 430
351 431
352 413
352 420
352 429
352 432
353 354
353 355
353 356
353 360
353 363
354 355
354 367
354 368
355 390
355 433
355 434
355 435
356 357
356 358
356 359
356 360
356 363
357 358
357 359
357 378
357 380
357 381
358 359
358 380
358 382
358 383
359 436
359 437
359 438
359 439
360 361
360 362
360 363
361 362
361 371
361 372
362 397
362 440
362 441
362 442
363 433
363 436
363 440
363 443
364 365
364 366
365 403
365 426
365 444
365 445
366 400
366 427
366 444
366 446
367 368
367 369
367 370
368 430
368 434
368 447
368 448
369 370
369 374
369 377
370 424
370 447
370 449
370 450
371 372
371 373
372 414
372 441
372 451
372 452
373 408
373 416
373 451
373 453
374 375
374 376
374 377
375 376
375 382
375 384
376 394
376 454
376 455
376 456
377 421
377 449
377 454
377 457
378 379
378 380
378 381
379 387
379 404
379 458
379 459
380 381
380 382
380 383
381 437
381 458
381 460
381 461
382 383
382 384
383 438
383 460
383 462
383 463
384 422
384 455
384 462
384 464
385 386
385 387
385 388
385 389
385 390
385 391
386 387
386 388
386 396
386 397
386 398
387 388
387 404
387 458
387 459
388 485
389 390
389 391
389 406
389 410
389 411
390 391
390 433
390 434
390 435
391 486
392 393
392 394
392 395
392 399
392 400
392 401
393 394
393 395
393 412
393 416
393 417
394 395
394 454
394 455
394 456
395 475
396 397
396 398
396 429
396 430
396 431
397 398
397 440
397 441
397 442
398 477
399 400
399 401
399 410
399 424
399 425
400 401
400 427
400 444
400 446
401 483
402 403
402 404
402 405
402 407
402 418
402 419
403 404
403 405
403 426
403 444
403 445
404 405
404 458
404 459
405 469
406 407
406 408
406 409
406 410
406 411
407 408
407 409
407 418
407 419
408 409
408 416
408 451
408 453
409 488
410 411
410 424
410 425
411 494
412 413
412 414
412 415
412 416
412 417
413 414
413 415
413 420
413 429
413 432
414 415
414 441
414 451
414 452
415 479
416 417
416 451
416 453
417 487
418 419
418 426
418 427
418 428
419 493
420 421
420 422
420 423
420 429
420 432
421 422
421 423
421 449
421 454
421 457
422 423
422 455
422 462
422 464
423 496
424 425
424 447
424 449
424 450
425 468
426 427
426 428
426 444
426 445
427 428
427 444
427 446
428 474
429 430
429 431
429 432
430 431
430 434
430 447
430 448
431 489
432 491
433 434
433 435
433 436
433 440
433 443
434 435
434 447
434 448
435 482
436 437
436 438
436 439
436 440
436 443
437 438
437 439
437 458
437 460
437 461
438 439
438 460
438 462
438 463
439 478
440 441
440 442
440 443
441 442
441 451
441 452
442 490
443 492
444 445
444 446
445 473
446 476
447 448
447 449
447 450
448 480
449 450
449 454
449 457
450 484
451 452
451 453
452 466
453 470
454 455
454 456
454 457
455 456
455 462
455 464
456 472
457 481
458 459
458 460
458 461
459 465
460 461
460 462
460 463
461 495
462 463
462 464
463 467
464 471
